\ENCODING=ISO-8859-1
\Problem name: 

Minimize
 obj: W
Subject To
 c1:  x1_1 + x1_2  = 1
 c2:  x2_1 + x2_2  = 1
 c3:  x3_1 + x3_2  = 1
 c4:  y1 + y2  = 1
 c5:  - x1_1 + y1 >= 0
 c6:  - x1_2 + y2 >= 0
 c7:  - x2_1 + y1 >= 0
 c8:  - x2_2 + y2 >= 0
 c9:  - x3_1 + y1 >= 0
 c10: - x3_2 + y2 >= 0
 c11: 10 x1_1 + 10 x2_1 + 10 x3_1 <= 50
 c12: 10 x1_2 + 10 x2_2 + 10 x3_2 <= 53
 c13: - W + 16.3940569908645 x1_1 + 27.2073493725675 x1_2 <= 0
 c14: - W + 22.8613013336321 x2_1 + 14.7782130717533 x2_2 <= 0
 c15: - W + 23.5410452847557 x3_1 + 14.8766204778003 x3_2 <= 0
Bounds
 0 <= x1_1 <= 1
 0 <= x1_2 <= 1
 0 <= x2_1 <= 1
 0 <= x2_2 <= 1
 0 <= x3_1 <= 1
 0 <= x3_2 <= 1
 0 <= y1 <= 1
 0 <= y2 <= 1
Binaries
 x1_1  x1_2  x2_1  x2_2  x3_1  x3_2  y1  y2 
End
